# Solution for model GasLib-40
# Objective value = 1.0545489838942425e+01
loadshed[innode_1] 0
loadshed[innode_2] 0
loadshed[innode_3] 0
loadshed[innode_4] 0
loadshed[innode_5] 0
loadshed[innode_6] 0
loadshed[innode_7] 0
loadshed[innode_8] 0
loadshed[source_1] -3.0911235072033483e-01
loadshed[source_2] 4.7531542318342113e-02
loadshed[source_3] 3.2828630090375455e-01
loadshed[sink_1] 0
loadshed[sink_2] 0
loadshed[sink_3] 0
loadshed[sink_4] 0
loadshed[sink_5] 0
loadshed[sink_6] 0
loadshed[sink_7] 0
loadshed[sink_8] 0
loadshed[sink_9] 0
loadshed[sink_10] 0
loadshed[sink_11] 0
loadshed[sink_12] 6.4481976085253034e-01
loadshed[sink_13] 0
loadshed[sink_14] 0
loadshed[sink_15] 0
loadshed[sink_16] 0
loadshed[sink_17] 0
loadshed[sink_18] 0
loadshed[sink_19] 0
loadshed[sink_20] 0
loadshed[sink_21] 0
loadshed[sink_22] 0
loadshed[sink_23] 0
loadshed[sink_24] 0
loadshed[sink_25] 0
loadshed[sink_26] 0
loadshed[sink_27] 0
loadshed[sink_28] 0
loadshed[sink_29] 0
flow[source_1,sink_3] 2.0695793516769737e+02
flow[innode_1,sink_16] 1.6354166666666970e+01
flow[innode_6,sink_13] 8.2877613894162341e+00
flow[sink_13,sink_14] -8.0664052772504338e+00
flow[sink_14,sink_10] -2.4420571943917139e+01
flow[sink_25,sink_26] 1.4980225185693348e+02
flow[sink_26,sink_9] 1.3344808519026660e+02
flow[sink_9,sink_18] 1.1709391852359992e+02
flow[sink_26,sink_4] 0
flow[sink_4,sink_20] -3.3689361420276093e+01
flow[sink_18,sink_6] 1.0073975185693325e+02
flow[sink_25,innode_8] -1.7424960183436102e+02
flow[sink_6,sink_7] 51.6772518569328
flow[sink_6,sink_22] 3.2708333333333641e+01
flow[sink_7,sink_24] 3.8517010161057584e+01
flow[sink_22,sink_1] 1.6354166666666970e+01
flow[sink_24,sink_21] 2.2162843494390913e+01
flow[sink_21,sink_12] 5.8086768277242449e+00
flow[sink_7,sink_5] -3.1939249707916133e+00
flow[sink_5,sink_17] -1.9548091637458356e+01
flow[sink_17,sink_4] -1.7335194753609425e+01
flow[sink_17,sink_8] -1.8567063550515545e+01
flow[sink_3,sink_23] 16.3541666666697
flow[sink_8,sink_20] -3.4921230217182213e+01
flow[sink_25,sink_20] 8.4964758304124985e+01
flow[sink_25,sink_15] -8.5159336382779955e+01
flow[sink_15,sink_29] -1.0151350304944663e+02
flow[sink_29,sink_28] 1.6354166666667879e+01
flow[sink_29,sink_2] 1.6354166666684250e+01
flow[sink_2,sink_15] 0
flow[sink_29,innode_7] -1.5057600304946487e+02
flow[innode_4,sink_19] 1.0619140527726408e+02
flow[sink_19,innode_3] 3.5859428936753794e+01
flow[innode_4,innode_5] 0
flow[sink_27,innode_5] 0
flow[sink_27,sink_19] -1.6354166666679703e+01
flow[sink_10,sink_11] 3.2708333333333641e+01
flow[sink_10,innode_2] -3.7623643007163921e+01
flow[sink_10,innode_3] -3.5859428936753794e+01
flow[innode_6,sink_25] -8.2877613894162341e+00
flow[sink_11,innode_1] 1.6354166666666970e+01
flow[sink_19,innode_2] 3.7623643007163921e+01
flow[source_3,innode_4] 1.0619140527726408e+02
flow[source_2,innode_7] 1.5057600304946487e+02
flow[sink_3,innode_8] 1.7424960183436102e+02
pressure[innode_1] 7.4570899363708222e+01
pressure[innode_2] 7.6711165594975228e+01
pressure[innode_3] 7.6631758950234612e+01
pressure[innode_4] 81.01325
pressure[innode_5] 7.6360035597831725e+01
pressure[innode_6] 7.3598795432589711e+01
pressure[innode_7] 81.01325
pressure[innode_8] 8.0321468683531265e+01
pressure[source_1] 81.01325
pressure[source_2] 81.01325
pressure[source_3] 81.01325
pressure[sink_1] 4.6033162590917030e+01
pressure[sink_2] 7.6571662300777390e+01
pressure[sink_3] 8.0321468683531265e+01
pressure[sink_4] 5.0871848643826851e+01
pressure[sink_5] 4.8753163132055768e+01
pressure[sink_6] 48.1342402013044
pressure[sink_7] 47.4248347132337
pressure[sink_8] 5.0909938205187593e+01
pressure[sink_9] 5.5061098489625380e+01
pressure[sink_10] 7.4722600671311767e+01
pressure[sink_11] 7.4570899363708222e+01
pressure[sink_12] 1.0132500000000002e+00
pressure[sink_13] 7.3553106389063444e+01
pressure[sink_14] 7.3567541908412892e+01
pressure[sink_15] 7.4011901195162977e+01
pressure[sink_16] 7.3549249528890542e+01
pressure[sink_17] 5.0209354661381674e+01
pressure[sink_18] 5.0824291517543074e+01
pressure[sink_19] 7.6711165594975228e+01
pressure[sink_20] 5.3343456844599537e+01
pressure[sink_21] 3.0802951254253967e+00
pressure[sink_22] 4.7096931733272037e+01
pressure[sink_23] 8.0156750671871464e+01
pressure[sink_24] 3.3257280253883512e+00
pressure[sink_25] 7.3598795432589711e+01
pressure[sink_26] 6.3048310808289742e+01
pressure[sink_27] 7.6360035597831725e+01
pressure[sink_28] 7.6690649525623868e+01
pressure[sink_29] 7.6985931799241044e+01
interdiction[source_1,sink_3] 0
interdiction[innode_1,sink_16] 0
interdiction[innode_6,sink_13] 0
interdiction[sink_13,sink_14] 0
interdiction[sink_14,sink_10] 0
interdiction[sink_25,sink_26] 0
interdiction[sink_26,sink_9] 0
interdiction[sink_9,sink_18] 0
interdiction[sink_26,sink_4] 1
interdiction[sink_4,sink_20] 0
interdiction[sink_18,sink_6] 0
interdiction[sink_25,innode_8] 0
interdiction[sink_6,sink_7] 0
interdiction[sink_6,sink_22] 0
interdiction[sink_7,sink_24] 0
interdiction[sink_22,sink_1] 0
interdiction[sink_24,sink_21] 0
interdiction[sink_21,sink_12] 0
interdiction[sink_7,sink_5] 0
interdiction[sink_5,sink_17] 0
interdiction[sink_17,sink_4] 0
interdiction[sink_17,sink_8] 0
interdiction[sink_3,sink_23] 0
interdiction[sink_8,sink_20] 0
interdiction[sink_25,sink_20] 0
interdiction[sink_25,sink_15] 0
interdiction[sink_15,sink_29] 0
interdiction[sink_29,sink_28] 0
interdiction[sink_29,sink_2] 0
interdiction[sink_2,sink_15] 1
interdiction[sink_29,innode_7] 0
interdiction[innode_4,sink_19] 0
interdiction[sink_19,innode_3] 0
interdiction[innode_4,innode_5] 1
interdiction[sink_27,innode_5] 0
interdiction[sink_27,sink_19] 0
interdiction[sink_10,sink_11] 0
interdiction[sink_10,innode_2] 0
interdiction[sink_10,innode_3] 0
interdiction[innode_6,sink_25] 0
interdiction[sink_11,innode_1] 0
interdiction[sink_19,innode_2] 0
interdiction[source_3,innode_4] 0
interdiction[source_2,innode_7] 0
interdiction[sink_3,innode_8] 0
WCcheckFlow[source_1,sink_3] 39
WCcheckFlow[innode_1,sink_16] 1
WCcheckFlow[innode_6,sink_13] 13
WCcheckFlow[sink_13,sink_14] 12
WCcheckFlow[sink_14,sink_10] 11
WCcheckFlow[sink_25,sink_26] 15
WCcheckFlow[sink_26,sink_9] 14
WCcheckFlow[sink_9,sink_18] 13
WCcheckFlow[sink_26,sink_4] 0
WCcheckFlow[sink_4,sink_20] 1
WCcheckFlow[sink_18,sink_6] 12
WCcheckFlow[sink_25,innode_8] -36
WCcheckFlow[sink_6,sink_7] 9
WCcheckFlow[sink_6,sink_22] 2
WCcheckFlow[sink_7,sink_24] 3
WCcheckFlow[sink_22,sink_1] 1
WCcheckFlow[sink_24,sink_21] 2
WCcheckFlow[sink_21,sink_12] 1
WCcheckFlow[sink_7,sink_5] 5
WCcheckFlow[sink_5,sink_17] 4
WCcheckFlow[sink_17,sink_4] 2
WCcheckFlow[sink_17,sink_8] 1
WCcheckFlow[sink_3,sink_23] 1
WCcheckFlow[sink_8,sink_20] 0
WCcheckFlow[sink_25,sink_20] 0
WCcheckFlow[sink_25,sink_15] 6
WCcheckFlow[sink_15,sink_29] 5
WCcheckFlow[sink_29,sink_28] 1
WCcheckFlow[sink_29,sink_2] 1
WCcheckFlow[sink_2,sink_15] 0
WCcheckFlow[sink_29,innode_7] 2
WCcheckFlow[innode_4,sink_19] -2
WCcheckFlow[sink_19,innode_3] -5
WCcheckFlow[innode_4,innode_5] 0
WCcheckFlow[sink_27,innode_5] 1
WCcheckFlow[sink_27,sink_19] -2
WCcheckFlow[sink_10,sink_11] 3
WCcheckFlow[sink_10,innode_2] 1
WCcheckFlow[sink_10,innode_3] 6
WCcheckFlow[innode_6,sink_25] -14
WCcheckFlow[sink_11,innode_1] 2
WCcheckFlow[sink_19,innode_2] 0
WCcheckFlow[source_3,innode_4] -1
WCcheckFlow[source_2,innode_7] -1
WCcheckFlow[sink_3,innode_8] 37
